c ind 10 13 15 24 27 38 39 41 43 45 0
c ind 48 5 56 6 67 80 9 0
p cnf 105 371
-1 -2 11 0
-1 2 66 0
-100 -34 101 0
-100 34 102 0
-101 -47 39 0
-101 47 63 0
-102 -50 103 0
-102 50 104 0
-103 -55 39 0
-103 55 63 0
-104 -58 13 0
-104 58 105 0
-105 -63 39 0
-105 63 63 0
-11 -12 14 0
-11 12 16 0
-12 -13 9 0
-12 -9 13 0
-14 -13 15 0
-14 -15 13 0
-16 -17 19 0
-16 17 66 0
-17 18 0
-17 3 0
-18 -13 5 0
-18 -5 13 0
-19 -20 66 0
-19 20 68 0
-2 3 7 0
-20 -21 28 0
-20 21 34 0
-21 22 25 0
-22 -23 0
-23 -24 6 0
-23 -6 24 0
-25 -26 0
-26 -10 27 0
-26 -27 10 0
-28 -29 13 0
-28 29 30 0
-29 -10 13 0
-29 -13 10 0
-3 -4 0
-30 -31 33 0
-30 31 34 0
-31 22 0
-31 32 0
-32 -13 6 0
-32 -6 13 0
-33 -34 46 0
-33 34 49 0
-34 35 0
-34 44 0
-35 36 0
-35 42 0
-36 37 0
-36 40 0
-37 -38 39 0
-37 -39 38 0
-39 0
-4 -5 6 0
-4 -6 5 0
-40 -39 41 0
-40 -41 39 0
-42 -39 43 0
-42 -43 39 0
-44 -39 45 0
-44 -45 39 0
-46 -47 39 0
-46 47 34 0
-47 -13 48 0
-47 -48 13 0
-49 -50 54 0
-49 50 57 0
-50 44 0
-50 51 0
-51 42 0
-51 52 0
-52 40 0
-52 53 0
-53 -13 38 0
-53 -38 13 0
-54 -55 39 0
-54 55 34 0
-55 -13 56 0
-55 -56 13 0
-57 -58 39 0
-57 58 62 0
-58 44 0
-58 59 0
-59 42 0
-59 60 0
-60 37 0
-60 61 0
-61 -13 41 0
-61 -41 13 0
-62 -63 13 0
-62 63 34 0
-63 44 0
-63 64 0
-64 42 0
-64 65 0
-65 53 0
-65 61 0
-66 -15 67 0
-66 -67 15 0
-68 -69 78 0
-68 69 86 0
-69 -21 70 0
-69 21 50 0
-7 -8 0
-70 -29 39 0
-70 29 71 0
-71 -31 72 0
-71 31 50 0
-72 -34 73 0
-72 34 74 0
-73 -47 13 0
-73 47 50 0
-74 -50 75 0
-74 50 76 0
-75 -55 39 0
-75 55 50 0
-76 -58 39 0
-76 58 77 0
-77 -63 39 0
-77 63 50 0
-78 -79 81 0
-78 79 66 0
-79 -13 80 0
-79 -80 13 0
-8 -10 9 0
-8 -9 10 0
-81 82 0
-81 85 0
-82 83 0
-82 85 0
-83 84 0
-83 85 0
-84 -15 39 0
-84 -39 15 0
-85 -39 39 0
-86 -87 66 0
-86 87 96 0
-87 -21 88 0
-87 21 58 0
-88 -29 39 0
-88 29 89 0
-89 -31 90 0
-89 31 58 0
-90 -34 91 0
-90 34 92 0
-91 -47 39 0
-91 47 58 0
-92 -50 93 0
-92 50 94 0
-93 -55 13 0
-93 55 58 0
-94 -58 39 0
-94 58 95 0
-95 -63 39 0
-95 63 58 0
-96 -97 14 0
-96 97 66 0
-97 -21 98 0
-97 21 63 0
-98 -29 39 0
-98 29 99 0
-99 -31 100 0
-99 31 63 0
1 -11 -66 0
1 -2 -11 0
1 0
1 2 -66 0
100 -101 -102 0
100 -34 -101 0
100 34 -102 0
101 -39 -63 0
101 -47 -39 0
101 47 -63 0
102 -103 -104 0
102 -50 -103 0
102 50 -104 0
103 -39 -63 0
103 -55 -39 0
103 55 -63 0
104 -13 -105 0
104 -58 -13 0
104 58 -105 0
105 -39 -63 0
105 -63 -39 0
105 63 -63 0
11 -12 -14 0
11 -14 -16 0
11 12 -16 0
12 -9 -13 0
12 9 13 0
13 0
14 -15 -13 0
14 15 13 0
16 -17 -19 0
16 -19 -66 0
16 17 -66 0
17 -3 -18 0
18 -5 -13 0
18 5 13 0
19 -20 -66 0
19 -66 -68 0
19 20 -68 0
2 -3 0
2 -7 0
20 -21 -28 0
20 -28 -34 0
20 21 -34 0
21 -22 0
21 -25 0
22 23 0
23 -6 -24 0
23 6 24 0
25 26 0
26 -10 -27 0
26 10 27 0
28 -13 -30 0
28 -29 -13 0
28 29 -30 0
29 -10 -13 0
29 10 13 0
3 4 0
30 -31 -33 0
30 -33 -34 0
30 31 -34 0
31 -22 -32 0
32 -6 -13 0
32 6 13 0
33 -34 -46 0
33 -46 -49 0
33 34 -49 0
34 -35 -44 0
35 -36 -42 0
36 -37 -40 0
37 -38 -39 0
37 38 39 0
4 -5 -6 0
4 5 6 0
40 -41 -39 0
40 41 39 0
42 -43 -39 0
42 43 39 0
44 -45 -39 0
44 45 39 0
46 -39 -34 0
46 -47 -39 0
46 47 -34 0
47 -48 -13 0
47 48 13 0
49 -50 -54 0
49 -54 -57 0
49 50 -57 0
50 -51 -44 0
51 -52 -42 0
52 -53 -40 0
53 -38 -13 0
53 38 13 0
54 -39 -34 0
54 -55 -39 0
54 55 -34 0
55 -56 -13 0
55 56 13 0
57 -39 -62 0
57 -58 -39 0
57 58 -62 0
58 -59 -44 0
59 -60 -42 0
60 -37 -61 0
61 -41 -13 0
61 41 13 0
62 -13 -34 0
62 -63 -13 0
62 63 -34 0
63 -64 -44 0
64 -65 -42 0
65 -53 -61 0
66 -15 -67 0
66 15 67 0
68 -69 -78 0
68 -78 -86 0
68 69 -86 0
69 -21 -70 0
69 -70 -50 0
69 21 -50 0
7 8 0
70 -29 -39 0
70 -39 -71 0
70 29 -71 0
71 -31 -72 0
71 -72 -50 0
71 31 -50 0
72 -34 -73 0
72 -73 -74 0
72 34 -74 0
73 -13 -50 0
73 -47 -13 0
73 47 -50 0
74 -50 -75 0
74 -75 -76 0
74 50 -76 0
75 -39 -50 0
75 -55 -39 0
75 55 -50 0
76 -39 -77 0
76 -58 -39 0
76 58 -77 0
77 -39 -50 0
77 -63 -39 0
77 63 -50 0
78 -79 -81 0
78 -81 -66 0
78 79 -66 0
79 -80 -13 0
79 80 13 0
8 -9 -10 0
8 9 10 0
81 -82 -85 0
82 -83 -85 0
83 -84 -85 0
84 -15 -39 0
84 15 39 0
85 -39 -39 0
85 39 39 0
86 -66 -96 0
86 -87 -66 0
86 87 -96 0
87 -21 -88 0
87 -88 -58 0
87 21 -58 0
88 -29 -39 0
88 -39 -89 0
88 29 -89 0
89 -31 -90 0
89 -90 -58 0
89 31 -58 0
90 -34 -91 0
90 -91 -92 0
90 34 -92 0
91 -39 -58 0
91 -47 -39 0
91 47 -58 0
92 -50 -93 0
92 -93 -94 0
92 50 -94 0
93 -13 -58 0
93 -55 -13 0
93 55 -58 0
94 -39 -95 0
94 -58 -39 0
94 58 -95 0
95 -39 -58 0
95 -63 -39 0
95 63 -58 0
96 -14 -66 0
96 -97 -14 0
96 97 -66 0
97 -21 -98 0
97 -98 -63 0
97 21 -63 0
98 -29 -39 0
98 -39 -99 0
98 29 -99 0
99 -100 -63 0
99 -31 -100 0
99 31 -63 0
